RT is False
Default write of storage_offers_DA.csv just to have a file (but constraint should be inactive)
Reading model...
...model read.
creating competitive generators file...
...competitive generators recorded.
Loading data...
.. day-ahead data with real-time VRE data read.
Compiling instance...
...instance created.
Creating Offer Mitigation (model will solve as dispatch if TRUE)...
NOTE: storage offers will not be mitigated
...storage offer mitigation file created
Converting model to MPEC...
...converted
NOTE: initial MIP solve with only storage competitive to get feasible solution
Solving...

Welcome to IBM(R) ILOG(R) CPLEX(R) Interactive Optimizer 12.9.0.0
  with Simplex, Mixed Integer & Barrier Optimizers
5725-A06 5725-A29 5724-Y48 5724-Y49 5724-Y54 5724-Y55 5655-Y21
Copyright IBM Corp. 1988, 2019.  All Rights Reserved.

Type 'help' for a list of available commands.
Type 'help' followed by a command name for more
information on commands.

CPLEX> Logfile 'cplex.log' closed.
Logfile 'C:\Users\llavin\Desktop\test826\logs\tmpk2pqrr0g.cplex.log' open.
CPLEX> New value for parallel optimization mode: -1
CPLEX> New value for emphasis for MIP optimization: 1
CPLEX> New value for mixed integer optimality gap tolerance: 0.01
CPLEX> New value for integrality tolerance: 1e-12
CPLEX> New value for deterministic time limit in ticks: 75000
CPLEX> Problem 'C:\Users\llavin\Desktop\test826\logs\tmp7avrby5j.pyomo.lp' read.
Read time = 0.23 sec. (13.92 ticks)
CPLEX> Problem name         : C:\Users\llavin\Desktop\test826\logs\tmp7avrby5j.pyomo.lp
Objective sense      : Maximize
Variables            :   53809  [Nneg: 1,  Box: 22004,  Free: 4464,
                                 Binary: 27340]
Objective nonzeros   :    8978
Linear constraints   :  123253  [Less: 41346,  Greater: 59096,  Equal: 22811]
  Nonzeros           :  293287
  RHS nonzeros       :   67489

Variables            : Min LB: -5000.000        Max UB: 1000000.       
Objective nonzeros   : Min   : 0.008333333      Max   : 723.7333       
Linear constraints   :
  Nonzeros           : Min   : 0.008333333      Max   : 1000000.       
  RHS nonzeros       : Min   : 0.008333333      Max   : 1000000.       
CPLEX> CPXPARAM_Parallel                                -1
CPXPARAM_Emphasis_MIP                            1
CPXPARAM_DetTimeLimit                            75000
CPXPARAM_MIP_Tolerances_MIPGap                   0.01
CPXPARAM_MIP_Tolerances_Integrality              9.9999999999999998e-13
Tried aggregator 4 times.
MIP Presolve eliminated 88720 rows and 18976 columns.
MIP Presolve added 3393 rows and 0 columns.
MIP Presolve modified 24876 coefficients.
Aggregator did 12998 substitutions.
Reduced MIP has 24928 rows, 21279 columns, and 71131 nonzeros.
Reduced MIP has 8402 binaries, 0 generals, 0 SOSs, and 0 indicators.
Presolve time = 0.33 sec. (193.67 ticks)
Probing fixed 397 vars, tightened 4564 bounds.
Probing time = 0.06 sec. (19.01 ticks)
Tried aggregator 2 times.
MIP Presolve eliminated 888 rows and 794 columns.
MIP Presolve modified 3036 coefficients.
Aggregator did 38 substitutions.
Reduced MIP has 24002 rows, 20447 columns, and 68447 nonzeros.
Reduced MIP has 8005 binaries, 0 generals, 0 SOSs, and 0 indicators.
Presolve time = 0.11 sec. (87.41 ticks)
Probing fixed 0 vars, tightened 297 bounds.
Probing time = 0.14 sec. (23.48 ticks)
Clique table members: 44105.
MIP emphasis: integer feasibility.
MIP search method: dynamic search.
Parallel mode: opportunistic, using up to 32 threads.
Root relaxation solution time = 0.44 sec. (654.28 ticks)

        Nodes                                         Cuts/
   Node  Left     Objective  IInf  Best Integer    Best Bound    ItCnt     Gap

      0     0     7928.7626   125                   7928.7626     5493         
*     0+    0                         7928.7626     7928.7626             0.00%
      0     0        cutoff           7928.7626     7928.7626     5493    0.00%
Elapsed time = 1.72 sec. (1358.52 ticks, tree = 0.01 MB, solutions = 1)

Root node processing (before b&c):
  Real time             =    1.75 sec. (1360.46 ticks)
Parallel b&c, 32 threads:
  Real time             =    0.00 sec. (0.00 ticks)
  Sync time (average)   =    0.00 sec.
  Wait time (average)   =    0.00 sec.
                          ------------
Total (root+branch&cut) =    1.75 sec. (1360.46 ticks)

Solution pool: 1 solution saved.

MIP - Integer optimal solution:  Objective =  7.9287626340e+03
Solution time =    1.77 sec.  Iterations = 5493  Nodes = 0
Deterministic time = 1360.62 ticks  (770.45 ticks/sec)

CPLEX> Incumbent solution written to file 'C:\Users\llavin\Desktop\test826\logs\tmprklnetgg.cplex.sol'.
CPLEX> NOTE: no warmstart specified for MIP iteration, default behavior is true
NOTE: resolving with all competitive generators using storage-only solution to warmstart
Solving...

Welcome to IBM(R) ILOG(R) CPLEX(R) Interactive Optimizer 12.9.0.0
  with Simplex, Mixed Integer & Barrier Optimizers
5725-A06 5725-A29 5724-Y48 5724-Y49 5724-Y54 5724-Y55 5655-Y21
Copyright IBM Corp. 1988, 2019.  All Rights Reserved.

Type 'help' for a list of available commands.
Type 'help' followed by a command name for more
information on commands.

CPLEX> Logfile 'cplex.log' closed.
Logfile 'C:\Users\llavin\Desktop\test826\logs\tmpi2j8qva7.cplex.log' open.
CPLEX> New value for parallel optimization mode: -1
CPLEX> New value for emphasis for MIP optimization: 1
CPLEX> New value for mixed integer optimality gap tolerance: 0.01
CPLEX> New value for integrality tolerance: 1e-12
CPLEX> New value for deterministic time limit in ticks: 75000
CPLEX> Problem 'C:\Users\llavin\Desktop\test826\logs\tmp019aok5p.pyomo.lp' read.
Read time = 0.23 sec. (13.94 ticks)
CPLEX> MIP start file 'C:\Users\llavin\Desktop\test826\logs\tmp9cewjl2x.cplex.mst' read.
CPLEX> Problem name         : C:\Users\llavin\Desktop\test826\logs\tmp019aok5p.pyomo.lp
Objective sense      : Maximize
Variables            :   54529  [Nneg: 1,  Box: 22724,  Free: 4464,
                                 Binary: 27340]
Objective nonzeros   :    9674
Linear constraints   :  123253  [Less: 41346,  Greater: 59096,  Equal: 22811]
  Nonzeros           :  293287
  RHS nonzeros       :   67489

Variables            : Min LB: -5000.000        Max UB: 1000000.       
Objective nonzeros   : Min   : 0.008333333      Max   : 722.0000       
Linear constraints   :
  Nonzeros           : Min   : 0.008333333      Max   : 1000000.       
  RHS nonzeros       : Min   : 0.008333333      Max   : 1000000.       
CPLEX> CPXPARAM_Parallel                                -1
CPXPARAM_Emphasis_MIP                            1
CPXPARAM_DetTimeLimit                            75000
CPXPARAM_MIP_Tolerances_MIPGap                   0.01
CPXPARAM_MIP_Tolerances_Integrality              9.9999999999999998e-13
Warning:  No solution found from 1 MIP starts.
Retaining values of one MIP start for possible repair.
Tried aggregator 4 times.
MIP Presolve eliminated 88720 rows and 19696 columns.
MIP Presolve added 3393 rows and 0 columns.
MIP Presolve modified 24876 coefficients.
Aggregator did 12998 substitutions.
Reduced MIP has 24928 rows, 21279 columns, and 71131 nonzeros.
Reduced MIP has 8402 binaries, 0 generals, 0 SOSs, and 0 indicators.
Presolve time = 0.33 sec. (194.08 ticks)
Probing fixed 397 vars, tightened 4564 bounds.
Probing time = 0.08 sec. (19.01 ticks)
Tried aggregator 2 times.
MIP Presolve eliminated 888 rows and 794 columns.
MIP Presolve modified 3036 coefficients.
Aggregator did 38 substitutions.
Reduced MIP has 24002 rows, 20447 columns, and 68447 nonzeros.
Reduced MIP has 8005 binaries, 0 generals, 0 SOSs, and 0 indicators.
Presolve time = 0.11 sec. (87.41 ticks)
Probing fixed 0 vars, tightened 297 bounds.
Probing time = 0.16 sec. (23.48 ticks)
Clique table members: 44105.
MIP emphasis: integer feasibility.
MIP search method: dynamic search.
Parallel mode: opportunistic, using up to 32 threads.
Root relaxation solution time = 0.49 sec. (699.30 ticks)

        Nodes                                         Cuts/
   Node  Left     Objective  IInf  Best Integer    Best Bound    ItCnt     Gap

      0     0   146434.2108   321                 146434.2108     6153         
      0     0   144187.1150   182                   Cuts: 175     6376         
      0     0   143350.1365   167                    Cuts: 83     6470         
      0     0   143231.0852   163                    Cuts: 57     6518         
Repair heuristic found nothing.
      0    13   136095.6005   163                    Cuts: 12     6685         
Elapsed time = 4.69 sec. (1951.25 ticks, tree = 0.02 MB, solutions = 0)
    658   460   119398.7870   139                 139698.3553    12735         
   1209  1017   113025.2778    88                 139698.3553    18409         
   1809  1342    96053.2671    50                 139698.3553    23587         
   2439  1616    98506.7286    69                 139698.3553    26354         
   3077  2368    68259.4883    57                 139698.3553    40444         
   3735  2648    infeasible                       139698.3553    46448         
   4388  3233   129362.0880   115                 139698.3553    61013         
   4982  3735    64140.5596    59                 139698.3553    72519         
   5554  3838  -130304.9952    88                 139698.3553    75106         
   7496  5194  -623024.2509   116                 139698.3553   128759         
Elapsed time = 21.88 sec. (5054.07 ticks, tree = 38.00 MB, solutions = 0)
   8215  6083    91095.7983   133                 139698.3553   195169         
  10299   733   106639.3823    71                 131579.6364   208664         
  13512  3353   100212.9053    28                 131579.6364   263242         
  16267  6115    89944.0102    93                 131579.6364   330980         
  19123  7306   100013.6582    34                 131579.6364   361139         
* 20507+ 3210                        98062.1371   131579.6364            34.18%
  23340  3277   101011.1199    19    98062.1371   131579.6364   398173   34.18%
  26732  5325    99131.3645    35    98062.1371   131579.6364   430652   34.18%
  30243  8130   100493.2896    31    98062.1371   131579.6364   446601   34.18%
  32487  9716    99991.0316    19    98062.1371   131579.6364   455599   34.18%
Elapsed time = 72.08 sec. (15829.73 ticks, tree = 74.35 MB, solutions = 1)
  33406  9187        cutoff          98062.1371   131579.6364   453162   34.18%
  34017 11135        cutoff          98062.1371   131579.6364   462833   34.18%
* 34171 11541      integral     0    99458.0011   131579.6364   465552   32.30%
  34920 11601    99991.0316    20    99458.0011   131579.6364   465967   32.30%
  35627  8961   101033.6264    20    99458.0011   131579.6364   468289   32.30%
  36696  9283   100150.9266    20    99458.0011   131579.6364   469548   32.30%
  37784  9154   100855.4101    20    99458.0011   131579.6364   470820   32.30%
  38437  9242        cutoff          99458.0011   131579.6364   471547   32.30%
  39045  9126        cutoff          99458.0011   131579.6364   470387   32.30%
  39561  9841    99661.3166    11    99458.0011   131579.6364   474229   32.30%
Elapsed time = 107.56 sec. (24681.75 ticks, tree = 74.46 MB, solutions = 2)
  40136 12360   100694.4355    23    99458.0011   131579.6364   489591   32.30%
  40699  9891    99991.0316    21    99458.0011   131579.6364   474547   32.30%
  41249 10082        cutoff          99458.0011   131579.6364   475570   32.30%
  41667 10082    99991.0316    10    99458.0011   131579.6364   475715   32.30%
  42092 13217    99721.3465    36    99458.0011   131579.6364   495611   32.30%
  42505 10623        cutoff          99458.0011   131579.6364   480008   32.30%
  42897 11168        cutoff          99458.0011   131579.6364   482428   32.30%
  43156 11989        cutoff          99458.0011   131579.6364   486585   32.30%
  43428 13419        cutoff          99458.0011   131579.6364   496398   32.30%
  43773 12335    99991.0316    10    99458.0011   126678.7613   489725   27.37%
Elapsed time = 133.55 sec. (34239.39 ticks, tree = 98.30 MB, solutions = 2)
  44195 11630   100424.4694    21    99458.0011   126678.7613   484944   27.37%
  44765 12261    99590.2759    20    99458.0011   126678.7613   488671   27.37%
  45405 12368    99530.9684    24    99458.0011   126678.7613   489099   27.37%
  45824 12459   100643.8598    22    99458.0011   126678.7613   489532   27.37%
  46309 13433   100788.8642    23    99458.0011   126678.7613   496980   27.37%
  46742 12320    99991.0316    10    99458.0011   126678.7613   489567   27.37%
  47035 12078   121634.2174   199    99458.0011   126678.7613   487029   27.37%
  47421 13528        cutoff          99458.0011   126678.7613   497326   27.37%
  47905 13554    99576.5087    48    99458.0011   126678.7613   498032   27.37%
  48298 13532        cutoff          99458.0011   126678.7613   497347   27.37%
Elapsed time = 149.23 sec. (43798.40 ticks, tree = 107.04 MB, solutions = 2)
  48534 12707        cutoff          99458.0011   126678.7613   492715   27.37%
  48773 13761        cutoff          99458.0011   126678.7613   498973   27.37%
  48974 13628    99991.0316    10    99458.0011   126678.7613   498269   27.37%
  49172 14490    99991.0316    10    99458.0011   126678.7613   503238   27.37%
  49382 13939    99991.0316    10    99458.0011   126678.7613   500029   27.37%
  49580 13940        cutoff          99458.0011   126678.7613   500059   27.37%
  49749 13928        cutoff          99458.0011   126678.7613   499919   27.37%
  49922 13773    99991.0316    10    99458.0011   126678.7613   499087   27.37%
  50110 13928    99991.0316    10    99458.0011   126678.7613   499902   27.37%
  50275 14489        cutoff          99458.0011   126678.7613   503257   27.37%
Elapsed time = 157.23 sec. (53379.15 ticks, tree = 113.44 MB, solutions = 2)
  50449 14837    99728.8159    10    99458.0011   126678.7613   505101   27.37%
  50594 14186        cutoff          99458.0011   126678.7613   501418   27.37%
  50729 14382    99693.4561    10    99458.0011   126678.7613   502568   27.37%
  50890 14836        cutoff          99458.0011   126678.7613   505112   27.37%
  51017 14186        cutoff          99458.0011   126678.7613   501428   27.37%
  51155 14025    99991.0316    10    99458.0011   126678.7613   500630   27.37%
  51281 14021        cutoff          99458.0011   126678.7613   500663   27.37%
  51438 14021        cutoff          99458.0011   126678.7613   500666   27.37%
  51584 14186        cutoff          99458.0011   126678.7613   501436   27.37%
  51709 14658    99999.7832    11    99458.0011   126678.7613   504214   27.37%
Elapsed time = 161.95 sec. (62956.33 ticks, tree = 114.80 MB, solutions = 2)
  51841 14407    99991.0316    10    99458.0011   126678.7613   502677   27.37%
  51960 14202    99643.3396    10    99458.0011   126678.7613   501734   27.37%
  52089 14491    99991.0316    11    99458.0011   126678.7613   503292   27.37%
  52179 14658        cutoff          99458.0011   126678.7613   504226   27.37%
  52275 14425    99991.0316    11    99458.0011   126678.7613   502654   27.37%
  52382 14415    99991.0316    12    99458.0011   126678.7613   502711   27.37%
  52461 14670        cutoff          99458.0011   126678.7613   504247   27.37%
  52539 14846    99991.0316    14    99458.0011   126678.7613   505135   27.37%
  52609 14652    99991.0316     9    99458.0011   126678.7613   504091   27.37%
  52688 14659    99999.7832    10    99458.0011   126678.7613   504242   27.37%
Elapsed time = 166.73 sec. (72627.28 ticks, tree = 114.80 MB, solutions = 2)
  52730 14500    99991.0316     9    99458.0011   126678.7613   503369   27.37%
  52762 14844    99991.0316    11    99458.0011   126678.7613   505114   27.37%
  52773 14845    99991.0316    11    99458.0011   126678.7613   505116   27.37%

Cover cuts applied:  24
Implied bound cuts applied:  2
Flow cuts applied:  181
Mixed integer rounding cuts applied:  4

Root node processing (before b&c):
  Real time             =    2.86 sec. (1914.56 ticks)
Parallel b&c, 32 threads:
  Real time             =  164.52 sec. (73839.90 ticks)
  Sync time (average)   =    1.43 sec.
  Wait time (average)   =    0.26 sec.
                          ------------
Total (root+branch&cut) =  167.38 sec. (75754.46 ticks)

Solution pool: 2 solutions saved.

MIP - Deterministic time limit exceeded, integer feasible:  Objective =  9.9458001056e+04
Current MIP best bound =  1.2667876132e+05 (gap = 27220.8, 27.37%)
Solution time =  167.39 sec.  Iterations = 510156  Nodes = 52775 (15742)
Deterministic time = 75754.62 ticks  (452.56 ticks/sec)

CPLEX> Incumbent solution written to file 'C:\Users\llavin\Desktop\test826\logs\tmpcgz4an67.cplex.sol'.
CPLEX> Exporting results... 
